c NeuroCodeBench 2.0 CNF formula with verdict Unsat
p cnf 32 61
-1 -22 -17 26 29 16 4 -6 0
-1 -22 -17 26 29 16 4 6 0
1 25 -4 14 20 22 0
-1 -22 -17 26 29 -16 -19 28 -18 -11 0
-1 -22 -17 26 29 -16 -19 -28 -4 0
-1 22 20 8 19 0
1 25 4 32 0
-1 22 -20 9 -18 -7 0
1 -25 27 -31 26 10 -3 0
-1 -22 -17 26 29 16 -4 0
-1 22 -20 9 18 -32 -5 0
-1 -22 17 -28 13 27 26 0
-1 22 -20 9 18 -32 5 0
1 -25 27 31 -13 0
1 -25 27 -31 26 -10 0
1 -25 27 -31 26 10 3 16 -6 0
-1 -22 17 -28 13 27 -26 4 0
-1 -22 17 -28 13 -27 0
1 -25 27 -31 26 10 3 16 6 0
1 -25 27 -31 -26 -23 13 0
-1 22 -20 9 18 32 25 0
1 -25 27 -31 -26 23 10 0
-1 22 20 -8 12 9 0
-1 -22 -17 26 29 -16 19 0
-1 -22 -17 26 -29 -32 0
-1 -22 -17 26 -29 32 0
1 25 -4 14 -20 31 0
-1 -22 17 28 -12 -10 0
-1 -22 -17 26 29 -16 -19 -28 4 0
-1 22 -20 -9 -21 0
-1 -22 17 -28 13 27 -26 -4 0
-1 22 20 -8 -12 0
-1 -22 -17 26 29 -16 -19 28 18 0
1 25 -4 -14 -27 8 0
-1 22 20 8 -19 0
1 -25 -27 -15 -30 0
-1 22 -20 9 -18 7 0
1 25 4 -32 5 0
1 25 -4 -14 27 0
-1 -22 -17 -26 0
-1 -22 17 -28 -13 20 0
1 25 -4 14 20 -22 -18 0
-1 22 -20 -9 21 0
-1 22 -20 9 18 32 -25 0
1 -25 27 31 13 0
-1 -22 17 -28 -13 -20 29 0
1 25 -4 14 -20 -31 0
-1 -22 17 -28 -13 -20 -29 0
-1 -22 17 28 12 0
1 -25 -27 15 0
1 -25 27 -31 26 10 3 -16 0
1 25 -4 -14 -27 -8 0
1 25 4 -32 -5 0
-1 22 20 -8 12 -9 -6 0
1 -25 -27 -15 30 0
-1 -22 -17 26 29 -16 -19 28 -18 11 0
1 -25 27 -31 -26 -23 -13 0
-1 22 20 -8 12 -9 6 0
1 25 -4 14 20 -22 18 0
-1 -22 17 28 -12 10 0
1 -25 27 -31 -26 23 -10 0
